
Gurobi 11.0.1 (win64) logging started Thu Mar 28 22:30:55 2024

Set parameter LogFile to value "C:\Projetos\Job_Rotation_Algorithms\Outputs\GurobiLogs\gurobi_log-output-74_hes-c59-CostaMirallesModel-NoExtraConstraint-2.log"
Gurobi Optimizer version 11.0.1 build v11.0.1rc0 (win64 - Windows 10.0 (19045.2))

CPU model: 11th Gen Intel(R) Core(TM) i7-1165G7 @ 2.80GHz, instruction set [SSE2|AVX|AVX2|AVX512]
Thread count: 4 physical cores, 8 logical processors, using up to 1 threads

WLS license 901039 - registered to Bitka Analytics
Optimize a model with 936 rows, 2695 columns and 32879 nonzeros
Model fingerprint: 0xfb6addb0
Variable types: 2 continuous, 2693 integer (2693 binary)
Coefficient statistics:
  Matrix range     [1e+00, 2e+02]
  Objective range  [1e+00, 1e+00]
  Bounds range     [1e+00, 1e+02]
  RHS range        [1e+00, 1e+02]
Presolve removed 341 rows and 1134 columns
Presolve time: 0.19s
Presolved: 595 rows, 1561 columns, 12029 nonzeros
Variable types: 0 continuous, 1561 integer (1560 binary)

Root relaxation: objective 5.500000e+01, 556 iterations, 0.00 seconds (0.01 work units)

    Nodes    |    Current Node    |     Objective Bounds      |     Work
 Expl Unexpl |  Obj  Depth IntInf | Incumbent    BestBd   Gap | It/Node Time

     0     0   55.00000    0   38          -   55.00000      -     -    0s
     0     0   55.00000    0   39          -   55.00000      -     -    0s
     0     0   55.00000    0   39          -   55.00000      -     -    0s
     0     0   55.00000    0   79          -   55.00000      -     -    0s
     0     0   55.00000    0  163          -   55.00000      -     -    0s
     0     0   55.00000    0  149          -   55.00000      -     -    0s
     0     0   55.00000    0   62          -   55.00000      -     -    0s
     0     0   55.00000    0   65          -   55.00000      -     -    0s
     0     0   55.00000    0  131          -   55.00000      -     -    0s
     0     0   55.00000    0   87          -   55.00000      -     -    0s
     0     0   55.00000    0   82          -   55.00000      -     -    0s
     0     0   55.00000    0   74          -   55.00000      -     -    0s
     0     0   55.00000    0   74          -   55.00000      -     -    0s
     0     2   55.00000    0   74          -   55.00000      -     -    1s
H  846   247                      48.0000000   55.00000  14.6%  96.3    4s
   957   309   54.00000   25   39   48.00000   55.00000  14.6%  93.7    5s
H 1021   296                      49.0000000   55.00000  12.2%   108    6s
H 1023   275                      54.0000000   55.00000  1.85%   108    6s

Cutting planes:
  Gomory: 1
  Cover: 34
  Clique: 25
  MIR: 3
  StrongCG: 1
  Flow cover: 6
  GUB cover: 3
  Zero half: 1
  RLT: 1

Explored 1085 nodes (144348 simplex iterations) in 9.31 seconds (8.91 work units)
Thread count was 1 (of 8 available processors)

Solution count 3: 54 49 48 

Optimal solution found (tolerance 1.00e-03)
Best objective 5.400000000000e+01, best bound 5.400000000000e+01, gap 0.0000%
